782
112
2299
706
1790
611
656
2168
2072
244
342
76
2271
1381
2015
1901
339
1580
1061
1516
159
2301
140
1271
1576
1277
1265
1963
1767
827
1768
1853
1689
1436
232
1303
1732
1805
1300
2125
1839
814
400
84
591
999
1520
845
298
1470
